certificates/rado_a13_c147_N32.cnf
c Rad2 upper bound instance: x1 + 13*x2 - x3 = 147, interval [1,32]
p cnf 32 156
1 10 12 0
-1 -10 -12 0
1 13 23 0
-1 -13 -23 0
2 11 12 0
-2 -11 -12 0
2 13 24 0
-2 -13 -24 0
3 12 0
-3 -12 0
3 13 25 0
-3 -13 -25 0
4 12 13 0
-4 -12 -13 0
4 13 26 0
-4 -13 -26 0
1 5 11 0
-1 -5 -11 0
5 12 14 0
-5 -12 -14 0
5 13 27 0
-5 -13 -27 0
2 6 11 0
-2 -6 -11 0
6 12 15 0
-6 -12 -15 0
6 13 28 0
-6 -13 -28 0
3 7 11 0
-3 -7 -11 0
7 12 16 0
-7 -12 -16 0
7 13 29 0
-7 -13 -29 0
4 8 11 0
-4 -8 -11 0
8 12 17 0
-8 -12 -17 0
8 13 30 0
-8 -13 -30 0
5 9 11 0
-5 -9 -11 0
9 12 18 0
-9 -12 -18 0
9 13 31 0
-9 -13 -31 0
6 10 11 0
-6 -10 -11 0
10 12 19 0
-10 -12 -19 0
10 13 32 0
-10 -13 -32 0
7 11 0
-7 -11 0
11 12 20 0
-11 -12 -20 0
8 11 12 0
-8 -11 -12 0
12 21 0
-12 -21 0
9 11 13 0
-9 -11 -13 0
12 13 22 0
-12 -13 -22 0
10 11 14 0
-10 -11 -14 0
12 14 23 0
-12 -14 -23 0
11 15 0
-11 -15 0
12 15 24 0
-12 -15 -24 0
11 12 16 0
-11 -12 -16 0
12 16 25 0
-12 -16 -25 0
11 13 17 0
-11 -13 -17 0
12 17 26 0
-12 -17 -26 0
1 10 18 0
-1 -10 -18 0
11 14 18 0
-11 -14 -18 0
12 18 27 0
-12 -18 -27 0
2 10 19 0
-2 -10 -19 0
11 15 19 0
-11 -15 -19 0
12 19 28 0
-12 -19 -28 0
3 10 20 0
-3 -10 -20 0
11 16 20 0
-11 -16 -20 0
12 20 29 0
-12 -20 -29 0
4 10 21 0
-4 -10 -21 0
11 17 21 0
-11 -17 -21 0
12 21 30 0
-12 -21 -30 0
5 10 22 0
-5 -10 -22 0
11 18 22 0
-11 -18 -22 0
12 22 31 0
-12 -22 -31 0
6 10 23 0
-6 -10 -23 0
11 19 23 0
-11 -19 -23 0
12 23 32 0
-12 -23 -32 0
7 10 24 0
-7 -10 -24 0
11 20 24 0
-11 -20 -24 0
8 10 25 0
-8 -10 -25 0
11 21 25 0
-11 -21 -25 0
9 10 26 0
-9 -10 -26 0
11 22 26 0
-11 -22 -26 0
10 27 0
-10 -27 0
11 23 27 0
-11 -23 -27 0
10 11 28 0
-10 -11 -28 0
11 24 28 0
-11 -24 -28 0
10 12 29 0
-10 -12 -29 0
11 25 29 0
-11 -25 -29 0
10 13 30 0
-10 -13 -30 0
11 26 30 0
-11 -26 -30 0
1 9 31 0
-1 -9 -31 0
10 14 31 0
-10 -14 -31 0
11 27 31 0
-11 -27 -31 0
2 9 32 0
-2 -9 -32 0
10 15 32 0
-10 -15 -32 0
11 28 32 0
-11 -28 -32 0
