certificates/rado_a13_c147_N32.drat
11 -29 -31 -32 0
-29 -31 -32 0
d 11 -29 -31 -32 0
-11 -31 -32 0
-31 -32 0
d -29 -31 -32 0
-15 29 -32 0
29 -32 0
d -15 29 -32 0
10 25 -11 31 0
15 -32 0
-32 0
13 -29 0
-13 -29 0
d -7 -13 -29 0
-29 0
12 -10 0
11 -10 0
-10 0
27 0
12 0
13 0
15 0
-5 0
-3 0
-21 0
-18 0
-22 0
-4 0
-11 0
-24 0
-6 0
9 0
0
